(declare-fun e () String)
(declare-fun c () String)
(declare-fun b () String)
(declare-fun d () String)
(declare-fun f () String)
(declare-fun a () String)
(declare-fun h () String)
(assert (= (str.++ d h) "bebec"))
(assert (= (str.++ a e e) (str.++ h "d" d b a "f")))
(assert (= (str.++ f "f" c "ag") "dg"))

(check-sat)
